(set-info :source |printed by MathSAT|)
(declare-fun call__main_.call_controleur2.diff () Int)
(declare-fun ast () Bool)
(declare-fun call__main_.call_controleur.avance () Bool)
(declare-fun diff0 () Int)
(declare-fun call__main_.retard1 () Bool)
(declare-fun call__main_.flby () Int)
(declare-fun nB0 () Int)
(declare-fun call__main_.call_controleur.flby () Bool)
(declare-fun call__main_._H1_ () Bool)
(declare-fun call__main_.call_hypothese2.flby2 () Int)
(declare-fun call__main_.nS () Int)
(declare-fun call__main_.flby2 () Int)
(declare-fun call__main_.call_controleur2.avance () Bool)
(declare-fun flby () Bool)
(declare-fun call__main_.call_controleur.diff () Int)
(declare-fun retard0 () Bool)
(declare-fun call__main_.nB1 () Int)
(declare-fun call__main_.diff0 () Int)
(declare-fun diff1 () Int)
(declare-fun call__main_.flby3 () Int)
(declare-fun _OK_ () Bool)
(declare-fun call__main_.avance0 () Bool)
(declare-fun call__main_.call_controleur2.retard () Bool)
(declare-fun call__main_._H0_ () Bool)
(declare-fun nB1 () Int)
(declare-fun call__main_.call_controleur2.flby2 () Bool)
(declare-fun call__main_.call_hypothese.ok () Bool)
(declare-fun call__main_.call_hypothese.c () Int)
(declare-fun call__main_.call_controleur.flby2 () Bool)
(declare-fun call__main_.call_hypothese.flby () Bool)
(declare-fun call__main_.call_hypothese2.ok () Bool)
(declare-fun retard1 () Bool)
(declare-fun call__main_.call_hypothese2.c () Int)
(declare-fun call__main_.avance1 () Bool)
(declare-fun call_Sofar.flby () Bool)
(declare-fun avance0 () Bool)
(declare-fun call__main_.call_hypothese2.flby () Bool)
(declare-fun call__main_.call_hypothese.flby2 () Int)
(declare-fun call__main_.ast () Bool)
(declare-fun call__main_.retard0 () Bool)
(declare-fun avance1 () Bool)
(declare-fun call__main_.nB0 () Int)
(declare-fun call__main_.call_controleur.retard () Bool)
(declare-fun nS () Int)
(declare-fun call__main_.diff1 () Int)
(declare-fun call_Sofar.Sofar () Bool)
(declare-fun call__main_.call_controleur2.flby () Bool)
(define-fun .def_613 () Bool (= call_Sofar.flby call_Sofar.Sofar))
(define-fun .def_610 () Bool (= call__main_.call_controleur2.flby2 call__main_.call_controleur2.retard))
(define-fun .def_608 () Bool (= call__main_.call_controleur2.flby call__main_.call_controleur2.avance))
(define-fun .def_603 () Int (* (- 1) call__main_.call_controleur2.diff))
(define-fun .def_591 () Int (* (- 1) call__main_.nS))
(define-fun .def_604 () Int (+ .def_591 .def_603))
(define-fun .def_605 () Int (+ call__main_.nB1 .def_604))
(define-fun .def_606 () Bool (= .def_605 0))
(define-fun .def_598 () Bool (= call__main_.call_controleur.flby2 call__main_.call_controleur.retard))
(define-fun .def_596 () Bool (= call__main_.call_controleur.flby call__main_.call_controleur.avance))
(define-fun .def_590 () Int (* (- 1) call__main_.call_controleur.diff))
(define-fun .def_592 () Int (+ .def_591 .def_590))
(define-fun .def_593 () Int (+ call__main_.nB0 .def_592))
(define-fun .def_594 () Bool (= .def_593 0))
(define-fun .def_585 () Bool (= call__main_.call_hypothese2.flby2 call__main_.call_hypothese2.c))
(define-fun .def_582 () Bool (= call__main_.call_hypothese2.flby call__main_.call_hypothese2.ok))
(define-fun .def_580 () Bool (= call__main_.call_hypothese.flby2 call__main_.call_hypothese.c))
(define-fun .def_577 () Bool (= call__main_.call_hypothese.flby call__main_.call_hypothese.ok))
(define-fun .def_575 () Bool (= call__main_._H1_ call__main_.call_hypothese2.ok))
(define-fun .def_572 () Bool (= call__main_._H0_ call__main_.call_hypothese.ok))
(define-fun .def_569 () Bool (= call__main_.retard1 call__main_.call_controleur2.retard))
(define-fun .def_566 () Bool (= call__main_.retard0 call__main_.call_controleur.retard))
(define-fun .def_563 () Bool (= call__main_.avance1 call__main_.call_controleur2.avance))
(define-fun .def_560 () Bool (= call__main_.avance0 call__main_.call_controleur.avance))
(define-fun .def_557 () Bool (= call__main_.diff1 call__main_.call_controleur2.diff))
(define-fun .def_554 () Bool (= call__main_.diff0 call__main_.call_controleur.diff))
(define-fun .def_551 () Bool (= call__main_.flby3 call__main_.nS))
(define-fun .def_549 () Bool (= call__main_.flby2 call__main_.nB1))
(define-fun .def_547 () Bool (= call__main_.flby call__main_.nB0))
(define-fun .def_544 () Bool (and call__main_._H0_ call__main_._H1_))
(define-fun .def_545 () Bool (= call__main_.ast .def_544))
(define-fun .def_540 () Bool (= ast call__main_.ast))
(define-fun .def_537 () Bool (= retard1 call__main_.retard1))
(define-fun .def_533 () Bool (= retard0 call__main_.retard0))
(define-fun .def_529 () Bool (= avance1 call__main_.avance1))
(define-fun .def_525 () Bool (= avance0 call__main_.avance0))
(define-fun .def_521 () Bool (= diff1 call__main_.diff1))
(define-fun .def_517 () Bool (= diff0 call__main_.diff0))
(define-fun .def_513 () Bool (= nS call__main_.nS))
(define-fun .def_509 () Bool (= nB1 call__main_.nB1))
(define-fun .def_505 () Bool (= nB0 call__main_.nB0))
(define-fun .def_502 () Bool (= flby _OK_))
(define-fun .def_506 () Bool (and .def_502 .def_505))
(define-fun .def_510 () Bool (and .def_506 .def_509))
(define-fun .def_514 () Bool (and .def_510 .def_513))
(define-fun .def_518 () Bool (and .def_514 .def_517))
(define-fun .def_522 () Bool (and .def_518 .def_521))
(define-fun .def_526 () Bool (and .def_522 .def_525))
(define-fun .def_530 () Bool (and .def_526 .def_529))
(define-fun .def_534 () Bool (and .def_530 .def_533))
(define-fun .def_538 () Bool (and .def_534 .def_537))
(define-fun .def_541 () Bool (and .def_538 .def_540))
(define-fun .def_546 () Bool (and .def_541 .def_545))
(define-fun .def_548 () Bool (and .def_546 .def_547))
(define-fun .def_550 () Bool (and .def_548 .def_549))
(define-fun .def_552 () Bool (and .def_550 .def_551))
(define-fun .def_555 () Bool (and .def_552 .def_554))
(define-fun .def_558 () Bool (and .def_555 .def_557))
(define-fun .def_561 () Bool (and .def_558 .def_560))
(define-fun .def_564 () Bool (and .def_561 .def_563))
(define-fun .def_567 () Bool (and .def_564 .def_566))
(define-fun .def_570 () Bool (and .def_567 .def_569))
(define-fun .def_573 () Bool (and .def_570 .def_572))
(define-fun .def_576 () Bool (and .def_573 .def_575))
(define-fun .def_578 () Bool (and .def_576 .def_577))
(define-fun .def_581 () Bool (and .def_578 .def_580))
(define-fun .def_583 () Bool (and .def_581 .def_582))
(define-fun .def_586 () Bool (and .def_583 .def_585))
(define-fun .def_595 () Bool (and .def_586 .def_594))
(define-fun .def_597 () Bool (and .def_595 .def_596))
(define-fun .def_599 () Bool (and .def_597 .def_598))
(define-fun .def_607 () Bool (and .def_599 .def_606))
(define-fun .def_609 () Bool (and .def_607 .def_608))
(define-fun .def_611 () Bool (and .def_609 .def_610))
(define-fun .def_614 () Bool (and .def_611 .def_613))
(define-fun .def_499 () Bool (= ast call_Sofar.flby))
(define-fun .def_495 () Bool (not call__main_.call_controleur2.flby2))
(define-fun .def_492 () Bool (not call__main_.call_controleur2.flby))
(define-fun .def_489 () Bool (not call__main_.call_controleur.flby2))
(define-fun .def_486 () Bool (not call__main_.call_controleur.flby))
(define-fun .def_483 () Bool (= call__main_.call_hypothese2.flby2 0))
(define-fun .def_478 () Bool (= call__main_.call_hypothese.flby2 0))
(define-fun .def_473 () Bool (= call__main_.flby3 0))
(define-fun .def_470 () Bool (= call__main_.flby2 0))
(define-fun .def_466 () Bool (= call__main_.flby 0))
(define-fun .def_468 () Bool (and .def_466 flby))
(define-fun .def_471 () Bool (and .def_468 .def_470))
(define-fun .def_474 () Bool (and .def_471 .def_473))
(define-fun .def_476 () Bool (and .def_474 call__main_.call_hypothese.flby))
(define-fun .def_479 () Bool (and .def_476 .def_478))
(define-fun .def_481 () Bool (and .def_479 call__main_.call_hypothese2.flby))
(define-fun .def_484 () Bool (and .def_481 .def_483))
(define-fun .def_487 () Bool (and .def_484 .def_486))
(define-fun .def_490 () Bool (and .def_487 .def_489))
(define-fun .def_493 () Bool (and .def_490 .def_492))
(define-fun .def_496 () Bool (and .def_493 .def_495))
(define-fun .def_500 () Bool (and .def_496 .def_499))
(define-fun .def_615 () Bool (and .def_500 .def_614))
(assert .def_615)
